% From JaCoP's nonogramRepository/data140.nin
 rows = 25;
 row_rule_len = 3;
 row_rules = array2d(1..rows, 1..row_rule_len, 
[
 0,6,2,
 5,1,3,
 5,3,4,
 4,5,3,
 0,4,9,
 0,4,9,
 0,4,7,
 0,6,3,
 0,4,3,
 0,0,8,
 0,0,9,
 0,5,4,
 3,2,5,
 3,7,3,
 3,7,3,
 4,7,2,
 4,7,1,
 0,5,11,
 0,5,11,
 0,5,11,
 4,3,5,
 3,4,6,
 2,4,6,
 1,4,6,
 0,4,6
]);

 cols = 25;
 col_rule_len = 3;
 col_rules = array2d(1..cols, 1..col_rule_len, 
[
 0,1,5,
 0,1,5,
 0,2,5,
 0,3,4,
 0,3,4,
 0,4,4,
 0,4,3,
 0,4,3,
 0,4,3,
 0,4,3,
 3,3,4,
 3,3,8,
 1,5,8,
 0,0,21,
 0,0,17,
 5,2,7,
 6,2,7,
 0,0,23,
 0,0,22,
 0,0,21,
 3,2,8,
 3,2,8,
 3,2,4,
 0,3,3,
 0,3,3
]);

